62      4       
13      13      10      14      
0       0       0       0       0       3       2       3       4       
6       0       0       0       7       2       10      46      
2       0       2       0       0       3       5       6       11      
5       0       1       0       0       3       7       48      52      
10      0       10      0       0       3       14      17      27      
10      6       0       0       0       3       8       9       13      
5       2       0       0       0       3       12      30      34      
9       0       0       5       0       3       17      23      34      
1       7       0       0       0       3       29      37      50      
8       0       6       0       0       3       20      28      37      
6       0       0       4       0       3       16      31      37      
1       0       7       0       0       3       18      19      45      
1       0       0       4       0       2       15      21      
3       1       0       0       0       3       22      26      41      
2       5       0       0       0       2       31      36      
4       0       0       9       0       3       25      28      35      
8       0       0       0       3       3       33      45      49      
7       0       0       0       6       2       36      59      
5       0       0       0       6       2       40      41      
6       5       0       0       0       2       21      40      
7       0       6       0       0       3       23      39      42      
2       0       0       0       8       3       29      38      44      
10      0       6       0       0       3       24      29      50      
9       8       0       0       0       2       26      35      
8       0       6       0       0       3       26      32      38      
4       0       7       0       0       3       33      43      45      
5       0       0       0       10      3       32      47      51      
10      0       3       0       0       3       30      39      43      
2       0       9       0       0       3       30      33      60      
9       3       0       0       0       1       56      
8       0       0       3       0       2       35      38      
8       9       0       0       0       2       36      55      
9       8       0       0       0       2       47      54      
6       0       5       0       0       2       40      42      
4       0       0       5       0       3       44      51      55      
2       0       2       0       0       1       41      
2       3       0       0       0       3       39      43      51      
7       8       0       0       0       3       46      48      58      
8       2       0       0       0       1       56      
6       3       0       0       0       2       49      53      
3       0       0       0       4       1       46      
4       1       0       0       0       2       49      53      
8       0       0       0       9       2       44      52      
4       5       0       0       0       2       47      57      
5       0       7       0       0       2       53      58      
7       0       0       8       0       1       61      
1       10      0       0       0       1       48      
7       0       0       8       0       1       61      
2       0       0       3       0       3       50      54      55      
1       0       0       5       0       1       57      
7       9       0       0       0       1       52      
10      0       0       4       0       2       54      57      
7       7       0       0       0       1       61      
10      0       4       0       0       1       56      
4       5       0       0       0       1       60      
10      0       0       9       0       1       58      
2       3       0       0       0       2       59      60      
5       0       0       3       0       1       59      
9       0       0       0       4       1       62      
4       0       9       0       0       1       62      
8       0       0       7       0       1       62      
0       0       0       0       0       0       